# Solution for model problem_
# Objective value = 1.3975729777323056e+05
x(0_0) 0
x(0_1) 0
x(0_2) 0
x(0_3) 0
x(0_4) 0
x(0_5) 0
x(0_6) 0
x(0_7) 1
x(0_8) 0
x(0_9) 0
x(0_10) 0
x(0_11) 0
x(0_12) 0
x(0_13) 0
x(0_14) 0
x(0_15) 0
x(0_16) 0
x(1_17) 0
x(1_18) 0
x(1_19) 0
x(1_20) 0
x(1_21) 0
x(1_22) 0
x(1_23) 0
x(1_24) 0
x(1_25) 0
x(1_26) 0
x(1_27) 1
x(2_28) 0
x(2_29) 0
x(2_30) 0
x(2_31) 0
x(2_32) 0
x(2_33) 0
x(2_34) 0
x(2_35) 0
x(2_36) 0
x(2_37) 0
x(2_38) 0
x(2_39) 0
x(2_40) 1
x(2_41) 0
x(2_42) 0
x(3_43) 0
x(3_44) 0
x(3_45) 0
x(3_46) 0
x(3_47) 0
x(3_48) 0
x(3_49) 1
x(3_50) 0
x(3_51) 0
x(3_52) 0
x(3_53) 0
x(4_54) 0
x(4_55) 0
x(4_56) 0
x(4_57) 0
x(4_58) 0
x(4_59) 0
x(4_60) 0
x(4_61) 0
x(4_62) 0
x(4_63) 0
x(4_64) 0
x(4_65) 0
x(4_66) 0
x(4_67) 0
x(4_68) 0
x(4_69) 0
x(4_70) 0
x(4_71) 0
x(4_72) 1
x(5_73) 0
x(5_74) 0
x(5_75) 1
x(5_76) 0
x(5_77) 0
x(5_78) 0
x(5_79) 0
x(5_80) 0
x(5_81) 0
x(5_82) 0
x(5_83) 0
x(6_84) 0
x(6_85) 0
x(6_86) 0
x(6_87) 0
x(6_88) 0
x(6_89) 0
x(6_90) 0
x(6_91) 0
x(6_92) 1
x(6_93) 0
x(6_94) 0
x(6_95) 0
x(6_96) 0
x(6_97) 0
x(6_98) 0
x(6_99) 0
x(6_100) 0
x(6_101) 0
x(6_102) 0
x(7_103) 0
x(7_104) 1
x(7_105) 0
x(7_106) 0
x(7_107) 0
x(7_108) 0
x(7_109) 0
x(7_110) 0
x(7_111) 0
x(7_112) 0
x(7_113) 0
x(7_114) 0
x(7_115) 0
x(7_116) 0
x(8_117) 0
x(8_118) 0
x(8_119) 0
x(8_120) 0
x(8_121) 0
x(8_122) 0
x(8_123) 0
x(8_124) 0
x(8_125) 0
x(8_126) 0
x(8_127) 0
x(8_128) 0
x(8_129) 1
x(8_130) 0
x(8_131) 0
x(8_132) 0
x(8_133) 0
x(8_134) 0
x(9_135) 0
x(9_136) 0
x(9_137) 0
x(9_138) 0
x(9_139) 0
x(9_140) 0
x(9_141) 0
x(9_142) 0
x(9_143) 0
x(9_144) 0
x(9_145) 0
x(9_146) 0
x(9_147) 0
x(9_148) 0
x(9_149) 0
x(9_150) 1
x(10_151) 0
x(10_152) 0
x(10_153) 0
x(10_154) 0
x(10_155) 0
x(10_156) 0
x(10_157) 0
x(10_158) 0
x(10_159) 0
x(10_160) 0
x(10_161) 0
x(10_162) 0
x(10_163) 1
x(10_164) 0
x(10_165) 0
x(10_166) 0
x(11_167) 0
x(11_168) 0
x(11_169) 0
x(11_170) 0
x(11_171) 0
x(11_172) 0
x(11_173) 1
x(11_174) 0
x(11_175) 0
x(11_176) 0
x(12_177) 0
x(12_178) 0
x(12_179) 0
x(12_180) 0
x(12_181) 0
x(12_182) 0
x(12_183) 0
x(12_184) 0
x(12_185) 0
x(12_186) 0
x(12_187) 0
x(12_188) 0
x(12_189) 0
x(12_190) 0
x(12_191) 0
x(12_192) 1
x(13_193) 0
x(13_194) 0
x(13_195) 0
x(13_196) 0
x(13_197) 0
x(13_198) 0
x(13_199) 0
x(13_200) 0
x(13_201) 0
x(13_202) 0
x(13_203) 0
x(13_204) 0
x(13_205) 1
x(14_206) 0
x(14_207) 0
x(14_208) 0
x(14_209) 0
x(14_210) 0
x(14_211) 0
x(14_212) 0
x(14_213) 0
x(14_214) 0
x(14_215) 0
x(14_216) 0
x(14_217) 1
x(15_218) 1
x(15_219) 0
x(15_220) 0
x(15_221) 0
x(15_222) 0
x(15_223) 0
x(15_224) 0
x(15_225) 0
x(15_226) 0
x(15_227) 0
x(15_228) 0
x(15_229) 0
x(15_230) 0
x(16_231) 0
x(16_232) 0
x(16_233) 0
x(16_234) 0
x(16_235) 0
x(16_236) 1
x(16_237) 0
x(16_238) 0
x(16_239) 0
x(16_240) 0
x(16_241) 0
x(16_242) 0
x(16_243) 0
x(16_244) 0
x(17_245) 0
x(17_246) 0
x(17_247) 0
x(17_248) 0
x(17_249) 0
x(17_250) 0
x(17_251) 0
x(17_252) 0
x(17_253) 0
x(17_254) 1
x(17_255) 0
x(17_256) 0
x(17_257) 0
x(18_258) 0
x(18_259) 0
x(18_260) 0
x(18_261) 0
x(18_262) 0
x(18_263) 0
x(18_264) 0
x(18_265) 0
x(18_266) 0
x(18_267) 1
x(18_268) 0
x(18_269) 0
x(18_270) 0
x(18_271) 0
x(18_272) 0
x(18_273) 0
x(19_274) 0
x(19_275) 0
x(19_276) 0
x(19_277) 0
x(19_278) 0
x(19_279) 0
x(19_280) 0
x(19_281) 0
x(19_282) 0
x(19_283) 1
x(20_284) 0
x(20_285) 0
x(20_286) 0
x(20_287) 0
x(20_288) 0
x(20_289) 0
x(20_290) 0
x(20_291) 0
x(20_292) 0
x(20_293) 0
x(20_294) 0
x(20_295) 0
x(20_296) 0
x(20_297) 0
x(20_298) 0
x(20_299) 1
x(20_300) 0
x(20_301) 0
x(21_302) 1
x(21_303) 0
x(21_304) 0
x(21_305) 0
x(21_306) 0
x(21_307) 0
x(21_308) 0
x(21_309) 0
x(21_310) 0
x(21_311) 0
x(21_312) 0
x(21_313) 0
x(21_314) 0
x(21_315) 0
x(22_316) 0
x(22_317) 0
x(22_318) 0
x(22_319) 0
x(22_320) 0
x(22_321) 0
x(22_322) 1
x(22_323) 0
x(22_324) 0
x(22_325) 0
x(22_326) 0
x(22_327) 0
x(22_328) 0
x(22_329) 0
x(22_330) 0
x(22_331) 0
x(23_332) 0
x(23_333) 0
x(23_334) 0
x(23_335) 0
x(23_336) 0
x(23_337) 0
x(23_338) 0
x(23_339) 0
x(23_340) 0
x(23_341) 0
x(23_342) 0
x(23_343) 1
x(23_344) 0
x(24_345) 0
x(24_346) 0
x(24_347) 0
x(24_348) 0
x(24_349) 0
x(24_350) 0
x(24_351) 0
x(24_352) 0
x(24_353) 1
x(24_354) 0
x(25_355) 0
x(25_356) 0
x(25_357) 0
x(25_358) 0
x(25_359) 0
x(25_360) 0
x(25_361) 0
x(25_362) 0
x(25_363) 0
x(25_364) 0
x(25_365) 1
x(25_366) 0
x(25_367) 0
x(25_368) 0
x(25_369) 0
x(25_370) 0
x(25_371) 0
x(25_372) 0
x(26_373) 0
x(26_374) 0
x(26_375) 0
x(26_376) 0
x(26_377) 0
x(26_378) 0
x(26_379) 0
x(26_380) 0
x(26_381) 0
x(26_382) 0
x(26_383) 0
x(26_384) 0
x(26_385) 0
x(26_386) 0
x(26_387) 0
x(26_388) 0
x(26_389) 0
x(26_390) 1
x(27_391) 0
x(27_392) 0
x(27_393) 0
x(27_394) 0
x(27_395) 1
x(27_396) 0
x(27_397) 0
x(27_398) 0
x(27_399) 0
x(27_400) 0
x(27_401) 0
x(27_402) 0
x(27_403) 0
x(28_404) 0
x(28_405) 0
x(28_406) 0
x(28_407) 0
x(28_408) 1
x(28_409) 0
x(28_410) 0
x(28_411) 0
x(28_412) 0
x(28_413) 0
x(28_414) 0
x(28_415) 0
x(29_416) 0
x(29_417) 0
x(29_418) 0
x(29_419) 0
x(29_420) 0
x(29_421) 1
x(29_422) 0
x(29_423) 0
x(29_424) 0
x(29_425) 0
x(29_426) 0
x(29_427) 0
x(29_428) 0
x(29_429) 0
x(29_430) 0
x(29_431) 0
x(29_432) 0
x(29_433) 0
x(30_434) 0
x(30_435) 0
x(30_436) 0
x(30_437) 0
x(30_438) 0
x(30_439) 0
x(30_440) 0
x(30_441) 0
x(30_442) 0
x(30_443) 0
x(30_444) 1
x(30_445) 0
x(30_446) 0
x(30_447) 0
x(31_448) 0
x(31_449) 0
x(31_450) 0
x(31_451) 0
x(31_452) 0
x(31_453) 0
x(31_454) 0
x(31_455) 0
x(31_456) 0
x(31_457) 0
x(31_458) 0
x(31_459) 0
x(31_460) 0
x(31_461) 0
x(31_462) 0
x(31_463) 1
x(31_464) 0
x(32_465) 1
x(32_466) 0
x(32_467) 0
x(32_468) 0
x(32_469) 0
x(32_470) 0
x(32_471) 0
x(32_472) 0
x(32_473) 0
x(32_474) 0
x(33_475) 0
x(33_476) 0
x(33_477) 0
x(33_478) 0
x(33_479) 0
x(33_480) 0
x(33_481) 0
x(33_482) 0
x(33_483) 0
x(33_484) 1
x(33_485) 0
x(34_486) 0
x(34_487) 1
x(34_488) 0
x(34_489) 0
x(34_490) 0
x(34_491) 0
x(34_492) 0
x(34_493) 0
x(34_494) 0
x(34_495) 0
x(35_496) 0
x(35_497) 0
x(35_498) 0
x(35_499) 0
x(35_500) 0
x(35_501) 0
x(35_502) 0
x(35_503) 0
x(35_504) 0
x(35_505) 0
x(35_506) 0
x(35_507) 0
x(35_508) 0
x(35_509) 1
x(35_510) 0
x(36_511) 1
x(36_512) 0
x(36_513) 0
x(36_514) 0
x(36_515) 0
x(36_516) 0
x(36_517) 0
x(36_518) 0
x(36_519) 0
x(36_520) 0
x(37_521) 0
x(37_522) 0
x(37_523) 1
x(37_524) 0
x(37_525) 0
x(37_526) 0
x(37_527) 0
x(37_528) 0
x(37_529) 0
x(37_530) 0
x(37_531) 0
x(37_532) 0
x(37_533) 0
x(37_534) 0
x(37_535) 0
x(37_536) 0
x(37_537) 0
x(38_538) 0
x(38_539) 0
x(38_540) 0
x(38_541) 0
x(38_542) 0
x(38_543) 0
x(38_544) 1
x(38_545) 0
x(38_546) 0
x(38_547) 0
x(38_548) 0
x(38_549) 0
x(38_550) 0
x(38_551) 0
x(38_552) 0
x(38_553) 0
x(39_554) 0
x(39_555) 1
x(39_556) 0
x(39_557) 0
x(39_558) 0
x(39_559) 0
x(39_560) 0
x(39_561) 0
x(39_562) 0
x(39_563) 0
x(39_564) 0
x(39_565) 0
x(40_566) 0
x(40_567) 0
x(40_568) 0
x(40_569) 0
x(40_570) 0
x(40_571) 0
x(40_572) 0
x(40_573) 0
x(40_574) 0
x(40_575) 0
x(40_576) 0
x(40_577) 0
x(40_578) 1
x(40_579) 0
x(40_580) 0
x(40_581) 0
x(40_582) 0
x(40_583) 0
x(40_584) 0
x(40_585) 0
x(41_586) 1
x(41_587) 0
x(41_588) 0
x(41_589) 0
x(41_590) 0
x(41_591) 0
x(41_592) 0
x(41_593) 0
x(41_594) 0
x(41_595) 0
x(42_596) 0
x(42_597) 0
x(42_598) 0
x(42_599) 0
x(42_600) 0
x(42_601) 0
x(42_602) 1
x(42_603) 0
x(42_604) 0
x(42_605) 0
x(42_606) 0
x(42_607) 0
x(42_608) 0
x(42_609) 0
x(42_610) 0
x(43_611) 0
x(43_612) 0
x(43_613) 0
x(43_614) 0
x(43_615) 0
x(43_616) 0
x(43_617) 0
x(43_618) 0
x(43_619) 0
x(43_620) 0
x(43_621) 1
x(43_622) 0
x(43_623) 0
x(44_624) 0
x(44_625) 0
x(44_626) 0
x(44_627) 0
x(44_628) 0
x(44_629) 1
x(44_630) 0
x(44_631) 0
x(44_632) 0
x(44_633) 0
x(44_634) 0
x(44_635) 0
x(45_636) 0
x(45_637) 0
x(45_638) 0
x(45_639) 0
x(45_640) 0
x(45_641) 0
x(45_642) 0
x(45_643) 1
x(45_644) 0
x(45_645) 0
x(45_646) 0
x(45_647) 0
x(46_648) 0
x(46_649) 0
x(46_650) 0
x(46_651) 0
x(46_652) 0
x(46_653) 0
x(46_654) 0
x(46_655) 0
x(46_656) 0
x(46_657) 1
x(46_658) 0
x(46_659) 0
x(46_660) 0
x(46_661) 0
x(46_662) 0
x(46_663) 0
x(47_664) 0
x(47_665) 0
x(47_666) 0
x(47_667) 0
x(47_668) 0
x(47_669) 0
x(47_670) 0
x(47_671) 0
x(47_672) 1
x(47_673) 0
x(47_674) 0
x(47_675) 0
x(47_676) 0
x(47_677) 0
x(47_678) 0
x(48_679) 0
x(48_680) 0
x(48_681) 1
x(48_682) 0
x(48_683) 0
x(48_684) 0
x(48_685) 0
x(48_686) 0
x(48_687) 0
x(48_688) 0
x(48_689) 0
x(48_690) 0
x(48_691) 0
x(49_692) 0
x(49_693) 0
x(49_694) 0
x(49_695) 0
x(49_696) 0
x(49_697) 0
x(49_698) 0
x(49_699) 0
x(49_700) 1
x(49_701) 0
x(49_702) 0
x(49_703) 0
x(49_704) 0
x(49_705) 0
x(49_706) 0
x(49_707) 0
x(49_708) 0
x(49_709) 0
x(50_710) 0
x(50_711) 0
x(50_712) 0
x(50_713) 0
x(50_714) 0
x(50_715) 1
x(50_716) 0
x(50_717) 0
x(50_718) 0
x(50_719) 0
x(50_720) 0
x(50_721) 0
x(50_722) 0
x(50_723) 0
x(50_724) 0
x(51_725) 1
x(51_726) 0
x(51_727) 0
x(51_728) 0
x(51_729) 0
x(51_730) 0
x(51_731) 0
x(51_732) 0
x(51_733) 0
x(51_734) 0
x(51_735) 0
x(52_736) 0
x(52_737) 0
x(52_738) 0
x(52_739) 0
x(52_740) 1
x(52_741) 0
x(52_742) 0
x(52_743) 0
x(52_744) 0
x(52_745) 0
x(52_746) 0
x(52_747) 0
x(52_748) 0
x(52_749) 0
x(52_750) 0
x(52_751) 0
x(52_752) 0
x(53_753) 0
x(53_754) 0
x(53_755) 0
x(53_756) 0
x(53_757) 0
x(53_758) 0
x(53_759) 0
x(53_760) 0
x(53_761) 0
x(53_762) 0
x(53_763) 0
x(53_764) 1
x(53_765) 0
x(53_766) 0
x(54_767) 0
x(54_768) 0
x(54_769) 0
x(54_770) 0
x(54_771) 0
x(54_772) 0
x(54_773) 0
x(54_774) 0
x(54_775) 0
x(54_776) 0
x(54_777) 0
x(54_778) 1
x(54_779) 0
x(54_780) 0
x(54_781) 0
x(54_782) 0
x(54_783) 0
x(54_784) 0
x(55_785) 0
x(55_786) 0
x(55_787) 0
x(55_788) 0
x(55_789) 0
x(55_790) 0
x(55_791) 0
x(55_792) 0
x(55_793) 0
x(55_794) 0
x(55_795) 0
x(55_796) 0
x(55_797) 1
x(56_798) 0
x(56_799) 0
x(56_800) 0
x(56_801) 0
x(56_802) 1
x(56_803) 0
x(56_804) 0
x(56_805) 0
x(56_806) 0
x(56_807) 0
x(56_808) 0
x(56_809) 0
x(56_810) 0
x(57_811) 0
x(57_812) 0
x(57_813) 0
x(57_814) 0
x(57_815) 0
x(57_816) 0
x(57_817) 0
x(57_818) 0
x(57_819) 0
x(57_820) 0
x(57_821) 0
x(57_822) 0
x(57_823) 1
x(57_824) 0
x(57_825) 0
x(57_826) 0
x(57_827) 0
x(57_828) 0
x(57_829) 0
x(58_830) 0
x(58_831) 0
x(58_832) 0
x(58_833) 0
x(58_834) 0
x(58_835) 0
x(58_836) 0
x(58_837) 0
x(58_838) 0
x(58_839) 0
x(58_840) 0
x(58_841) 0
x(58_842) 0
x(58_843) 0
x(58_844) 0
x(58_845) 0
x(58_846) 1
x(58_847) 0
x(59_848) 0
x(59_849) 0
x(59_850) 0
x(59_851) 0
x(59_852) 0
x(59_853) 0
x(59_854) 0
x(59_855) 0
x(59_856) 0
x(59_857) 0
x(59_858) 0
x(59_859) 1
x(59_860) 0
x(59_861) 0
x(59_862) 0
x(59_863) 0
x(59_864) 0
x(59_865) 0
x(60_866) 0
x(60_867) 0
x(60_868) 0
x(60_869) 0
x(60_870) 0
x(60_871) 0
x(60_872) 0
x(60_873) 0
x(60_874) 0
x(60_875) 1
x(60_876) 0
x(60_877) 0
x(60_878) 0
x(60_879) 0
x(60_880) 0
x(60_881) 0
x(60_882) 0
x(60_883) 0
x(61_884) 0
x(61_885) 0
x(61_886) 0
x(61_887) 0
x(61_888) 0
x(61_889) 0
x(61_890) 0
x(61_891) 0
x(61_892) 0
x(61_893) 1
x(62_894) 0
x(62_895) 0
x(62_896) 0
x(62_897) 0
x(62_898) 0
x(62_899) 0
x(62_900) 0
x(62_901) 0
x(62_902) 0
x(62_903) 0
x(62_904) 0
x(62_905) 0
x(62_906) 1
x(62_907) 0
x(62_908) 0
x(62_909) 0
x(62_910) 0
x(63_911) 0
x(63_912) 0
x(63_913) 1
x(63_914) 0
x(63_915) 0
x(63_916) 0
x(63_917) 0
x(63_918) 0
x(63_919) 0
x(63_920) 0
x(63_921) 0
x(63_922) 0
x(63_923) 0
x(63_924) 0
x(63_925) 0
x(63_926) 0
x(63_927) 0
x(63_928) 0
x(64_929) 0
x(64_930) 1
x(64_931) 0
x(64_932) 0
x(64_933) 0
x(64_934) 0
x(64_935) 0
x(64_936) 0
x(64_937) 0
x(64_938) 0
x(64_939) 0
x(64_940) 0
x(64_941) 0
x(64_942) 0
x(64_943) 0
x(64_944) 0
x(65_945) 0
x(65_946) 0
x(65_947) 0
x(65_948) 0
x(65_949) 1
x(65_950) 0
x(65_951) 0
x(65_952) 0
x(65_953) 0
x(65_954) 0
x(65_955) 0
x(65_956) 0
x(66_957) 0
x(66_958) 0
x(66_959) 1
x(66_960) 0
x(66_961) 0
x(66_962) 0
x(66_963) 0
x(66_964) 0
x(66_965) 0
x(66_966) 0
x(67_967) 0
x(67_968) 0
x(67_969) 0
x(67_970) 0
x(67_971) 0
x(67_972) 0
x(67_973) 0
x(67_974) 0
x(67_975) 0
x(67_976) 0
x(67_977) 0
x(67_978) 1
x(67_979) 0
x(67_980) 0
x(67_981) 0
x(67_982) 0
x(68_983) 0
x(68_984) 0
x(68_985) 1
x(68_986) 0
x(68_987) 0
x(68_988) 0
x(68_989) 0
x(68_990) 0
x(68_991) 0
x(68_992) 0
x(68_993) 0
x(68_994) 0
x(68_995) 0
x(69_996) 0
x(69_997) 0
x(69_998) 0
x(69_999) 1
x(69_1000) 0
x(69_1001) 0
x(69_1002) 0
x(69_1003) 0
x(69_1004) 0
x(69_1005) 0
x(69_1006) 0
x(69_1007) 0
x(69_1008) 0
x(70_1009) 0
x(70_1010) 0
x(70_1011) 1
x(70_1012) 0
x(70_1013) 0
x(70_1014) 0
x(70_1015) 0
x(70_1016) 0
x(70_1017) 0
x(70_1018) 0
x(71_1019) 0
x(71_1020) 0
x(71_1021) 0
x(71_1022) 1
x(71_1023) 0
x(71_1024) 0
x(71_1025) 0
x(71_1026) 0
x(71_1027) 0
x(71_1028) 0
x(71_1029) 0
x(71_1030) 0
x(71_1031) 0
x(71_1032) 0
x(71_1033) 0
x(71_1034) 0
x(71_1035) 0
x(71_1036) 0
x(71_1037) 0
x(71_1038) 0
x(72_1039) 0
x(72_1040) 0
x(72_1041) 0
x(72_1042) 0
x(72_1043) 0
x(72_1044) 0
x(72_1045) 0
x(72_1046) 1
x(72_1047) 0
x(72_1048) 0
x(72_1049) 0
x(72_1050) 0
x(72_1051) 0
x(72_1052) 0
x(72_1053) 0
x(72_1054) 0
x(72_1055) 0
x(72_1056) 0
x(72_1057) 0
x(72_1058) 0
x(73_1059) 0
x(73_1060) 0
x(73_1061) 0
x(73_1062) 0
x(73_1063) 0
x(73_1064) 0
x(73_1065) 0
x(73_1066) 0
x(73_1067) 0
x(73_1068) 0
x(73_1069) 0
x(73_1070) 0
x(73_1071) 1
x(73_1072) 0
x(73_1073) 0
x(74_1074) 0
x(74_1075) 0
x(74_1076) 0
x(74_1077) 0
x(74_1078) 0
x(74_1079) 0
x(74_1080) 0
x(74_1081) 0
x(74_1082) 1
x(74_1083) 0
x(74_1084) 0
x(74_1085) 0
x(74_1086) 0
x(74_1087) 0
x(75_1088) 0
x(75_1089) 0
x(75_1090) 0
x(75_1091) 0
x(75_1092) 0
x(75_1093) 0
x(75_1094) 0
x(75_1095) 0
x(75_1096) 0
x(75_1097) 0
x(75_1098) 0
x(75_1099) 0
x(75_1100) 0
x(75_1101) 0
x(75_1102) 1
x(75_1103) 0
x(75_1104) 0
x(76_1105) 0
x(76_1106) 0
x(76_1107) 1
x(76_1108) 0
x(76_1109) 0
x(76_1110) 0
x(76_1111) 0
x(76_1112) 0
x(76_1113) 0
x(76_1114) 0
x(76_1115) 0
x(76_1116) 0
x(76_1117) 0
x(76_1118) 0
x(76_1119) 0
x(76_1120) 0
x(76_1121) 0
x(76_1122) 0
x(77_1123) 0
x(77_1124) 0
x(77_1125) 0
x(77_1126) 0
x(77_1127) 0
x(77_1128) 0
x(77_1129) 0
x(77_1130) 1
x(77_1131) 0
x(77_1132) 0
x(77_1133) 0
x(77_1134) 0
x(77_1135) 0
x(78_1136) 0
x(78_1137) 0
x(78_1138) 1
x(78_1139) 0
x(78_1140) 0
x(78_1141) 0
x(78_1142) 0
x(78_1143) 0
x(78_1144) 0
x(78_1145) 0
x(78_1146) 0
x(78_1147) 0
x(78_1148) 0
x(78_1149) 0
x(78_1150) 0
x(78_1151) 0
x(78_1152) 0
x(79_1153) 0
x(79_1154) 0
x(79_1155) 0
x(79_1156) 0
x(79_1157) 0
x(79_1158) 0
x(79_1159) 0
x(79_1160) 0
x(79_1161) 0
x(79_1162) 0
x(79_1163) 0
x(79_1164) 0
x(79_1165) 0
x(79_1166) 0
x(79_1167) 0
x(79_1168) 0
x(79_1169) 0
x(79_1170) 0
x(79_1171) 0
x(79_1172) 1
x(80_1173) 0
x(80_1174) 0
x(80_1175) 0
x(80_1176) 0
x(80_1177) 0
x(80_1178) 0
x(80_1179) 0
x(80_1180) 0
x(80_1181) 0
x(80_1182) 0
x(80_1183) 0
x(80_1184) 0
x(80_1185) 0
x(80_1186) 1
x(80_1187) 0
x(80_1188) 0
x(80_1189) 0
x(80_1190) 0
x(81_1191) 0
x(81_1192) 0
x(81_1193) 0
x(81_1194) 0
x(81_1195) 0
x(81_1196) 0
x(81_1197) 0
x(81_1198) 0
x(81_1199) 0
x(81_1200) 0
x(81_1201) 0
x(81_1202) 0
x(81_1203) 0
x(81_1204) 0
x(81_1205) 0
x(81_1206) 1
x(81_1207) 0
x(81_1208) 0
x(81_1209) 0
x(82_1210) 0
x(82_1211) 0
x(82_1212) 0
x(82_1213) 0
x(82_1214) 0
x(82_1215) 1
x(82_1216) 0
x(82_1217) 0
x(82_1218) 0
x(82_1219) 0
x(83_1220) 0
x(83_1221) 0
x(83_1222) 1
x(83_1223) 0
x(83_1224) 0
x(83_1225) 0
x(83_1226) 0
x(83_1227) 0
x(83_1228) 0
x(83_1229) 0
x(83_1230) 0
x(83_1231) 0
x(83_1232) 0
x(83_1233) 0
x(83_1234) 0
x(83_1235) 0
x(84_1236) 0
x(84_1237) 1
x(84_1238) 0
x(84_1239) 0
x(84_1240) 0
x(84_1241) 0
x(84_1242) 0
x(84_1243) 0
x(84_1244) 0
x(84_1245) 0
x(84_1246) 0
x(84_1247) 0
x(84_1248) 0
x(84_1249) 0
x(84_1250) 0
x(84_1251) 0
x(84_1252) 0
x(84_1253) 0
x(84_1254) 0
x(84_1255) 0
x(85_1256) 0
x(85_1257) 0
x(85_1258) 0
x(85_1259) 0
x(85_1260) 1
x(85_1261) 0
x(85_1262) 0
x(85_1263) 0
x(85_1264) 0
x(85_1265) 0
x(85_1266) 0
x(85_1267) 0
x(85_1268) 0
x(85_1269) 0
x(85_1270) 0
x(85_1271) 0
x(85_1272) 0
x(86_1273) 0
x(86_1274) 0
x(86_1275) 0
x(86_1276) 0
x(86_1277) 1
x(86_1278) 0
x(86_1279) 0
x(86_1280) 0
x(86_1281) 0
x(86_1282) 0
x(86_1283) 0
x(86_1284) 0
x(86_1285) 0
x(86_1286) 0
x(86_1287) 0
x(86_1288) 0
x(86_1289) 0
x(86_1290) 0
x(86_1291) 0
x(87_1292) 0
x(87_1293) 0
x(87_1294) 0
x(87_1295) 0
x(87_1296) 0
x(87_1297) 0
x(87_1298) 0
x(87_1299) 0
x(87_1300) 0
x(87_1301) 0
x(87_1302) 0
x(87_1303) 1
x(87_1304) 0
x(87_1305) 0
x(87_1306) 0
x(87_1307) 0
x(87_1308) 0
x(88_1309) 0
x(88_1310) 1
x(88_1311) 0
x(88_1312) 0
x(88_1313) 0
x(88_1314) 0
x(88_1315) 0
x(88_1316) 0
x(88_1317) 0
x(88_1318) 0
x(88_1319) 0
x(88_1320) 0
x(88_1321) 0
x(88_1322) 0
x(88_1323) 0
x(89_1324) 0
x(89_1325) 0
x(89_1326) 0
x(89_1327) 0
x(89_1328) 0
x(89_1329) 0
x(89_1330) 0
x(89_1331) 0
x(89_1332) 0
x(89_1333) 0
x(89_1334) 0
x(89_1335) 0
x(89_1336) 0
x(89_1337) 0
x(89_1338) 1
x(89_1339) 0
x(90_1340) 1
x(90_1341) 0
x(90_1342) 0
x(90_1343) 0
x(90_1344) 0
x(90_1345) 0
x(90_1346) 0
x(90_1347) 0
x(90_1348) 0
x(90_1349) 0
x(90_1350) 0
x(90_1351) 0
x(90_1352) 0
x(90_1353) 0
x(91_1354) 0
x(91_1355) 0
x(91_1356) 0
x(91_1357) 0
x(91_1358) 0
x(91_1359) 0
x(91_1360) 0
x(91_1361) 1
x(91_1362) 0
x(91_1363) 0
x(91_1364) 0
x(91_1365) 0
x(92_1366) 0
x(92_1367) 1
x(92_1368) 0
x(92_1369) 0
x(92_1370) 0
x(92_1371) 0
x(92_1372) 0
x(92_1373) 0
x(92_1374) 0
x(92_1375) 0
x(92_1376) 0
x(92_1377) 0
x(93_1378) 0
x(93_1379) 0
x(93_1380) 0
x(93_1381) 1
x(93_1382) 0
x(93_1383) 0
x(93_1384) 0
x(93_1385) 0
x(93_1386) 0
x(93_1387) 0
x(93_1388) 0
x(93_1389) 0
x(93_1390) 0
x(93_1391) 0
x(93_1392) 0
x(94_1393) 0
x(94_1394) 0
x(94_1395) 0
x(94_1396) 0
x(94_1397) 1
x(94_1398) 0
x(94_1399) 0
x(94_1400) 0
x(94_1401) 0
x(94_1402) 0
x(94_1403) 0
x(94_1404) 0
x(94_1405) 0
x(94_1406) 0
x(94_1407) 0
x(94_1408) 0
x(94_1409) 0
x(94_1410) 0
x(94_1411) 0
x(94_1412) 0
x(95_1413) 0
x(95_1414) 0
x(95_1415) 0
x(95_1416) 0
x(95_1417) 0
x(95_1418) 0
x(95_1419) 0
x(95_1420) 0
x(95_1421) 0
x(95_1422) 1
x(96_1423) 0
x(96_1424) 0
x(96_1425) 0
x(96_1426) 0
x(96_1427) 0
x(96_1428) 0
x(96_1429) 0
x(96_1430) 0
x(96_1431) 1
x(96_1432) 0
x(96_1433) 0
x(96_1434) 0
x(96_1435) 0
x(96_1436) 0
x(96_1437) 0
x(96_1438) 0
x(96_1439) 0
x(97_1440) 0
x(97_1441) 0
x(97_1442) 0
x(97_1443) 0
x(97_1444) 0
x(97_1445) 0
x(97_1446) 1
x(97_1447) 0
x(97_1448) 0
x(97_1449) 0
x(97_1450) 0
x(97_1451) 0
x(98_1452) 1
x(98_1453) 0
x(98_1454) 0
x(98_1455) 0
x(98_1456) 0
x(98_1457) 0
x(98_1458) 0
x(98_1459) 0
x(98_1460) 0
x(98_1461) 0
x(98_1462) 0
x(98_1463) 0
x(98_1464) 0
x(98_1465) 0
x(98_1466) 0
x(98_1467) 0
x(99_1468) 0
x(99_1469) 0
x(99_1470) 0
x(99_1471) 0
x(99_1472) 0
x(99_1473) 0
x(99_1474) 1
x(99_1475) 0
x(99_1476) 0
x(99_1477) 0
x(99_1478) 0
x(99_1479) 0
x(99_1480) 0
x_1_0 0
s_1_0 1.3844287388565135e+00
z_1_0 1
x_1_1 3.3359287880355259e+02
s_1_1 0
z_1_1 0
x_1_2 3.3340831186214928e+02
s_1_2 0
z_1_2 0
x_1_3 0
s_1_3 5.4011447279481217e-01
z_1_3 1
x_1_4 0
s_1_4 1.9522588870022446e+00
z_1_4 1
x_1_5 0
s_1_5 2.5879806475713849e+00
z_1_5 1
x_1_6 3.3567786804237403e+02
s_1_6 0
z_1_6 0
x_1_7 3.3691490708026686e+02
s_1_7 0
z_1_7 0
x_1_8 3.3699740206950810e+02
s_1_8 0
z_1_8 0
x_1_9 3.3510857955506071e+02
s_1_9 0
z_1_9 0
x_1_10 0
s_1_10 2.0733713943336625e+00
z_1_10 1
x_1_11 0
s_1_11 1.6703800509712892e+00
z_1_11 1
x_1_12 0
s_1_12 1.9821781011560233e+00
z_1_12 1
x_1_13 3.3627969869750086e+02
s_1_13 0
z_1_13 0
x_1_14 0
s_1_14 1.2655699151946465e+00
z_1_14 1
x_1_15 0
s_1_15 2.3048562313924776e+00
z_1_15 1
x_1_16 0
s_1_16 1.7747413570759818e+00
z_1_16 1
x_1_17 0
s_1_17 2.2068923523620469e+00
z_1_17 1
x_1_18 3.3482189030479640e+02
s_1_18 0
z_1_18 0
x_1_19 0
s_1_19 1.8551054809231573e+00
z_1_19 1
x_1_20 0
s_1_20 1.4252815559739247e+00
z_1_20 1
x_1_21 0
s_1_21 1.5027361187385395e+00
z_1_21 1
x_1_22 3.3374810009868816e+02
s_1_22 0
z_1_22 0
x_1_23 0
s_1_23 2.10435969842365
z_1_23 1
x_1_24 0
s_1_24 1.9751574784750119e+00
z_1_24 1
x_1_25 0
s_1_25 1.1905042824946577e+00
z_1_25 1
x_1_26 3.3626056342618540e+02
s_1_26 0
z_1_26 0
x_1_27 3.3740474350994918e+02
s_1_27 0
z_1_27 0
x_1_28 0
s_1_28 1.3135266533063259e+00
z_1_28 1
x_1_29 3.3328197568468750e+02
s_1_29 0
z_1_29 0
x_1_30 0
s_1_30 1.9951930907554924e+00
z_1_30 1
x_1_31 0
s_1_31 1.2904695221805014e+00
z_1_31 1
x_1_32 0
s_1_32 2.2899568662396632e+00
z_1_32 1
x_1_33 3.3438339495041873e+02
s_1_33 0
z_1_33 0
x_1_34 0
s_1_34 1.4669457797426730e+00
z_1_34 1
x_1_35 3.3435487438313430e+02
s_1_35 0
z_1_35 0
x_1_36 0
s_1_36 1.9318755684944335e+00
z_1_36 1
x_1_37 3.3799480878969189e+02
s_1_37 0
z_1_37 0
x_1_38 3.3428800132917240e+02
s_1_38 0
z_1_38 0
x_1_39 0
s_1_39 1.8598895018803887e+00
z_1_39 1
x_1_40 0
s_1_40 1.7544312673853710e+00
z_1_40 1
x_1_41 3.3517863590084016e+02
s_1_41 0
z_1_41 0
x_1_42 0
s_1_42 1.4023217506473884e+00
z_1_42 1
x_1_43 3.3274101862907992e+02
s_1_43 0
z_1_43 0
x_1_44 3.3828965202055406e+02
s_1_44 0
z_1_44 0
x_1_45 0
s_1_45 1.8284218105254695e+00
z_1_45 1
x_1_46 3.3612990349857137e+02
s_1_46 0
z_1_46 0
x_1_47 3.3509035126457456e+02
s_1_47 0
z_1_47 0
x_1_48 0
s_1_48 1.6454442990361713e+00
z_1_48 1
x_1_49 0
s_1_49 1.5914075707914890e+00
z_1_49 1
x_1_50 3.3431656617997214e+02
s_1_50 0
z_1_50 0
x_1_51 3.3836001929081976e+02
s_1_51 0
z_1_51 0
x_1_52 332.710301220417
s_1_52 0
z_1_52 0
x_1_53 332.20168970339
s_1_53 0
z_1_53 0
x_1_54 0
s_1_54 9.0809051170072053e-01
z_1_54 1
x_1_55 0
s_1_55 2.0198822613310767e+00
z_1_55 1
x_1_56 0
s_1_56 1.5254235418979079e+00
z_1_56 1
x_1_57 3.3360391668416560e+02
s_1_57 0
z_1_57 0
x_1_58 0
s_1_58 1.7789181208063383e+00
z_1_58 1
x_1_59 3.3367859845259227e+02
s_1_59 0
z_1_59 0
x_1_60 0
s_1_60 1.9264349594586747e+00
z_1_60 1
x_1_61 3.3361283290054325e+02
s_1_61 0
z_1_61 0
x_1_62 0
s_1_62 1.0597126712382305e+00
z_1_62 1
x_1_63 337.518489987473
s_1_63 0
z_1_63 0
x_1_64 0
s_1_64 1.8598899552494004e+00
z_1_64 1
x_1_65 0
s_1_65 2.0204792037839070e+00
z_1_65 1
x_1_66 3.3431255003320985e+02
s_1_66 0
z_1_66 0
x_1_67 0
s_1_67 1.7288057117839344e+00
z_1_67 1
x_1_68 3.3693668822571635e+02
s_1_68 0
z_1_68 0
x_1_69 0
s_1_69 1.4849803669203538e+00
z_1_69 1
x_1_70 3.3527597027923912e+02
s_1_70 0
z_1_70 0
x_1_71 3.3554124896973372e+02
s_1_71 0
z_1_71 0
x_1_72 0
s_1_72 8.0635011248523369e-01
z_1_72 1
x_1_73 3.3588203050242737e+02
s_1_73 0
z_1_73 0
x_1_74 0
s_1_74 1.0322808400997019e+00
z_1_74 1
x_1_75 0
s_1_75 2.5559398951058938e+00
z_1_75 1
x_1_76 0
s_1_76 1.8099689715891145e+00
z_1_76 1
x_1_77 3.3617617018986493e+02
s_1_77 0
z_1_77 0
x_1_78 3.3720739024132490e+02
s_1_78 0
z_1_78 0
x_1_79 334.731516122818
s_1_79 0
z_1_79 0
x_1_80 0
s_1_80 1.1206891941255890e+00
z_1_80 1
x_1_81 3.3669102793547790e+02
s_1_81 0
z_1_81 0
x_1_82 3.3363988233766577e+02
s_1_82 0
z_1_82 0
x_1_83 0
s_1_83 2.1477382814628072e+00
z_1_83 1
x_1_84 3.3723103271494620e+02
s_1_84 0
z_1_84 0
x_1_85 3.3227495468547568e+02
s_1_85 0
z_1_85 0
x_1_86 3.3306521290307865e+02
s_1_86 0
z_1_86 0
x_1_87 3.3283479060791433e+02
s_1_87 0
z_1_87 0
x_1_88 3.3509797689062543e+02
s_1_88 0
z_1_88 0
x_1_89 3.3344346172409132e+02
s_1_89 0
z_1_89 0
x_1_90 0
s_1_90 1.8161331017399789e+00
z_1_90 1
x_1_91 0
s_1_91 9.1411552473255142e-01
z_1_91 1
x_1_92 0
s_1_92 1.6687937388487626e+00
z_1_92 1
x_1_93 3.3254610055405647e+02
s_1_93 0
z_1_93 0
x_1_94 0
s_1_94 2.1380885614780709e+00
z_1_94 1
x_1_95 333.336078528082
s_1_95 0
z_1_95 0
x_1_96 3.3361559707648121e+02
s_1_96 0
z_1_96 0
x_1_97 0
s_1_97 2.1501838731564931e+00
z_1_97 1
x_1_98 3.3594080124096945e+02
s_1_98 0
z_1_98 0
x_1_99 0
s_1_99 2.3958205678791273e+00
z_1_99 1
x_1_100 0
s_1_100 1.2813824178883806e+00
z_1_100 1
x_1_101 3.3332064108387567e+02
s_1_101 0
z_1_101 0
x_1_102 3.3622957964031957e+02
s_1_102 0
z_1_102 0
x_1_103 0
s_1_103 1.2617574548930861e+00
z_1_103 1
x_1_104 0
s_1_104 2.5942239999967569e+00
z_1_104 1
x_1_105 3.3491647477261722e+02
s_1_105 0
z_1_105 0
x_1_106 3.3801290739607066e+02
s_1_106 0
z_1_106 0
x_1_107 3.3325194580573589e+02
s_1_107 0
z_1_107 0
x_1_108 0
s_1_108 1.3347402970539406e+00
z_1_108 1
x_1_109 332.651895460207
s_1_109 0
z_1_109 0
x_1_110 0
s_1_110 1.1779768844280625e+00
z_1_110 1
x_1_111 3.3628842007182539e+02
s_1_111 0
z_1_111 0
x_1_112 3.3795642069377936e+02
s_1_112 0
z_1_112 0
x_1_113 3.3611856699781492e+02
s_1_113 0
z_1_113 0
x_1_114 3.3541690916847438e+02
s_1_114 0
z_1_114 0
x_1_115 0
s_1_115 1.8052363375463756e+00
z_1_115 1
x_1_116 3.3676805223347765e+02
s_1_116 0
z_1_116 0
x_1_117 3.3294566170382313e+02
s_1_117 0
z_1_117 0
x_1_118 3.3827720954455435e+02
s_1_118 0
z_1_118 0
x_1_119 3.3634197152301203e+02
s_1_119 0
z_1_119 0
x_1_120 0
s_1_120 1.7130275584931951e+00
z_1_120 1
x_1_121 0
s_1_121 1.7147416277293814e+00
z_1_121 1
x_1_122 0
s_1_122 1.3391485080501297e+00
z_1_122 1
x_1_123 3.3577531098760664e+02
s_1_123 0
z_1_123 0
x_1_124 3.3522131268354133e+02
s_1_124 0
z_1_124 0
x_1_125 3.3719481439515948e+02
s_1_125 0
z_1_125 0
x_1_126 3.3454077800913365e+02
s_1_126 0
z_1_126 0
x_1_127 0
s_1_127 2.3820580331812380e+00
z_1_127 1
x_1_128 3.3496659511863254e+02
s_1_128 0
z_1_128 0
x_1_129 3.3413531335466541e+02
s_1_129 0
z_1_129 0
x_1_130 0
s_1_130 2.3404214357724413e+00
z_1_130 1
x_1_131 0
s_1_131 1.7239907288458198e+00
z_1_131 1
x_1_132 0
s_1_132 2.4570301447238307e+00
z_1_132 1
x_1_133 3.3568075962725561e+02
s_1_133 0
z_1_133 0
x_1_134 3.3723167394916527e+02
s_1_134 0
z_1_134 0
x_1_135 3.3671489967638627e+02
s_1_135 0
z_1_135 0
x_1_136 0
s_1_136 1.4402078304410679e+00
z_1_136 1
x_1_137 332.820774697102
s_1_137 0
z_1_137 0
x_1_138 0
s_1_138 1.9433769982133526e+00
z_1_138 1
x_1_139 0
s_1_139 2.1695160152157769e+00
z_1_139 1
x_1_140 0
s_1_140 2.0603090818185592e+00
z_1_140 1
x_1_141 0
s_1_141 4.3625309981871396e-01
z_1_141 1
x_1_142 3.3488535989623051e+02
s_1_142 0
z_1_142 0
x_1_143 0
s_1_143 8.0361640636692755e-01
z_1_143 1
x_1_144 0
s_1_144 2.7231597909629954e+00
z_1_144 1
x_1_145 3.3770318044733722e+02
s_1_145 0
z_1_145 0
x_1_146 3.3353601353615522e+02
s_1_146 0
z_1_146 0
x_1_147 3.3643397289281711e+02
s_1_147 0
z_1_147 0
x_1_148 0
s_1_148 1.8613611599430442e+00
z_1_148 1
x_1_149 0
s_1_149 1.7374712146993261e+00
z_1_149 1
x_1_150 338.04222251795
s_1_150 0
z_1_150 0
x_1_151 0
s_1_151 2.4922778101754375e+00
z_1_151 1
x_1_152 0
s_1_152 2.4270766751724295e+00
z_1_152 1
x_1_153 0
s_1_153 1.4070864537934540e+00
z_1_153 1
x_1_154 0
s_1_154 1.3655175924650393e+00
z_1_154 1
x_1_155 3.3533081851503812e+02
s_1_155 0
z_1_155 0
x_1_156 0
s_1_156 2.2003899019659912e+00
z_1_156 1
x_1_157 0
s_1_157 1.2711203684448265e+00
z_1_157 1
x_1_158 3.3358088552457048e+02
s_1_158 0
z_1_158 0
x_1_159 0
s_1_159 1.3371561751118861e+00
z_1_159 1
x_2_0 1.3819007677323057e+05
